6 94 95 92 98 85 93 99 96 60 18 88 10 90 32 20 66 35 34 78 3 77 68 80 54 4 56 74 26 
27 69 30 70 31 62 11 19 36 47 48 7 89 
53 40 21 73 72 75 22 41 23 67 39 25 55 24 29 79 81 33 50 1 
52 82 8 83 84 17 61 16 44 14 42 87 58 
28 12 76 51 9 71 65 63 64 49 46 45 5 59 2 57 15 43 38 86 91 100 37 97 13 
